c
c The Problem describing the plan needed for the murder mystery story
c Murderer = [0, ..., NUM_CHARACTERS - 1]. Murderer = character index
c Victim = [NUM_CHARACTERS, ..., NUM_CHARACTERS - 1]. Victim = character index - NUM_CHARACTERS
c Weapon = [2 * NUM_CHARACTERS, ..., 2 * NUM_CHARACTERS + NUM_Weapons - 1]. Weapon = clue index - 2 * NUM_CHARACTERS
p cnf 
